50
21533

483 610
879 972
61 555
788 224
366 806
872 859
976 711
766 95
617 728
576 931
311 107
296 878
500 571
993 188
348 174
762 295
440 821
769 326
653 573
150 61
343 907
28 416
70 821
863 16
927 95
903 404
63 104
927 316
440 151
116 230
193 651
217 938
530 593
205 295
710 712
754 713
650 837
98 704
234 992
184 132
843 72
314 367
111 79
694 482
176 817
126 940
439 307
240 665
330 8
353 588
